c loc-Brightkite:  https://snap.stanford.edu/data/loc-Brightkite.html
p edge 59 58
e 1 53
e 2 46
e 3 33
e 4 48
e 5 29
e 6 47
e 7 51
e 7 12
e 7 53
e 7 57
e 7 21
e 7 59
e 7 27
e 7 29
e 7 46
e 7 36
e 7 47
e 7 37
e 8 51
e 8 43
e 9 12
e 10 38
e 11 48
e 11 58
e 12 18
e 13 14
e 14 15
e 14 53
e 14 38
e 14 25
e 14 56
e 14 22
e 14 44
e 14 54
e 14 49
e 14 45
e 14 16
e 16 33
e 16 24
e 17 56
e 19 50
e 20 59
e 23 48
e 23 50
e 23 34
e 26 44
e 28 39
e 28 53
e 30 56
e 31 48
e 32 51
e 33 50
e 35 40
e 39 40
e 40 41
e 42 48
e 52 55
e 55 58
l 45
t 35 52
